c preprocessed version of BN_84, 29 vertices, 287 edges
p td 29 287
1 0
15 0
16 0
10 0
11 0
1 2
5 1
1 6
7 1
8 1
4 1
14 1
15 1
16 1
13 1
2 3
5 2
6 2
7 2
8 2
4 2
14 2
15 2
16 2
13 2
4 3
11 3
4 5
4 6
4 7
4 9
4 15
4 14
4 16
10 4
13 4
5 6
7 5
8 5
14 5
16 5
10 5
13 5
7 6
8 6
14 6
16 6
13 6
7 8
14 7
16 7
11 7
13 7
8 9
14 8
12 8
13 8
10 9
10 11
10 12
13 10
12 11
11 13
12 13
13 14
13 16
14 15
14 16
15 16
17 1
17 19
17 28
17 3
17 25
17 9
17 20
17 23
17 4
17 14
17 15
17 26
17 16
17 27
17 18
17 10
17 21
17 22
17 12
17 24
17 13
18 11
18 12
18 10
18 0
18 15
18 27
18 21
18 9
18 3
18 22
18 23
18 20
18 24
18 28
18 8
18 26
18 7
18 4
18 13
18 14
18 6
18 25
18 5
18 16
18 2
18 1
18 19
19 1
19 2
19 5
19 6
19 28
19 7
19 8
19 23
19 25
19 20
19 4
19 14
19 15
19 26
19 16
19 27
19 21
19 22
19 24
19 13
20 1
20 28
20 2
20 25
20 5
20 6
20 7
20 8
20 9
20 23
20 15
20 27
20 26
20 4
20 14
20 16
20 21
20 22
20 12
20 24
20 13
21 28
21 10
21 13
21 4
21 14
21 11
21 12
21 0
21 15
21 9
21 3
21 22
21 16
21 2
21 5
21 1
21 23
21 24
21 25
21 26
21 27
22 28
22 10
22 13
22 11
22 12
22 0
22 3
22 2
22 1
22 8
22 23
22 25
22 4
22 14
22 15
22 24
22 26
22 16
22 27
23 28
23 1
23 25
23 5
23 6
23 7
23 8
23 4
23 14
23 26
23 27
23 24
23 13
24 28
24 10
24 12
24 11
24 13
24 4
24 14
24 15
24 7
24 8
24 6
24 27
24 3
24 9
24 26
24 25
24 5
24 16
24 2
24 1
25 28
25 1
25 2
25 3
25 5
25 6
25 7
25 8
25 4
25 14
25 26
25 16
25 27
25 11
25 13
26 28
26 1
26 2
26 5
26 6
26 7
26 8
26 9
26 4
26 14
26 15
26 16
26 27
26 10
26 12
26 13
27 28
27 1
27 2
27 3
27 5
27 6
27 7
27 8
27 9
27 4
27 14
27 15
27 16
27 10
27 13
28 1
28 2
28 5
28 6
28 9
28 8
28 7
28 14
28 12
28 13
